Route #1: 77 23 44 26 11 64 40 53
Route #2: 10 68 18 25 42 16 66 60 6
Route #3: 72 8 22 71 51 57 29
Route #4: 63 5 30 70 37 75
Route #5: 2 27 49 65 47 56 38
Route #6: 15 12 34 46 45 32 7
Route #7: 76 73 31 3 20 54 62
Route #8: 28 74 39 48 13 61 50
Route #9: 9 19 33 55 35 59 4 36 14 41
Route #10: 17 58 69 67 43 21 24 52 1
Cost 1274